H  O  Si
 1.0000000000000000
    14.2700004578000001    0.0000000000000000    0.0000000000000000
     0.0000000000000000   14.2700004578000001    0.0000000000000000
     0.0000000000000000    0.0000000000000000   36.0000000000000000
 H   O   Si 
  64 160  64
Selective dynamics
Direct
  0.4014990578905129  0.8768912191051400  0.3145569265165593   T   T   T
  0.2886845924337419  0.3799601281317089  0.5624167524023794   T   T   T
  0.2154243720738745  0.3636541153367758  0.5930756139203822   T   T   T
  0.4270324840484904  0.4313990910558009  0.5183362507652595   T   T   T
  0.3005017661984075  0.5388406725052027  0.4170457078593253   T   T   T
  0.2971270188199054  0.5316169920427115  0.5395438448897723   T   T   T
  0.4199362680632374  0.6514120824058808  0.4823398766535876   T   T   T
  0.2035797754366699  0.8084449841435924  0.4920166708303692   T   T   T
  0.3863988704506571  0.6490820579815507  0.4357297032553293   T   T   T
  0.4427295321018474  0.8615555667945167  0.4000610438446988   T   T   T
  0.3492601073999031  0.0629670600173491  0.4451587860192326   T   T   T
  0.6754445542692191  0.8227866891501188  0.4391741613018861   T   T   T
  0.4313420228973352  0.1065931647411012  0.5122803120075889   T   T   T
  0.4037689716829044  0.1601219102060076  0.5521324639976837   T   T   T
  0.5433144961294238  0.2090309220588896  0.5085014401089866   T   T   T
  0.4100607998344539  0.3641237512987338  0.3611073314712839   T   T   T
  0.2683789126387854  0.1901391997017094  0.4417890118035245   T   T   T
  0.5184152276292922  0.3730543107994713  0.3513163871825454   T   T   T
  0.0556304912557931  0.0468024045669544  0.4525740542312226   T   T   T
  0.2881163462625622  0.2225715379431274  0.5777626041095625   T   T   T
  0.1934028181032523  0.9105730934204243  0.3707708320964020   T   T   T
  0.0898484506717353  0.4790449302673371  0.4543822211314633   T   T   T
  0.0061279828227080  0.3990911391155071  0.4661091404805711   T   T   T
  0.0344220277590272  0.2352568505311911  0.4210211014061619   T   T   T
  0.1744079001452644  0.2479939125111852  0.4433594130796830   T   T   T
  0.0324710143061171  0.1257434413289855  0.4145125827493262   T   T   T
  0.1474358979885963  0.3969180019991190  0.3861051481557691   T   T   T
  0.7998168805704789  0.9665267496873882  0.4545315491647886   T   T   T
  0.2655060115321067  0.3663008312015572  0.4314829894748727   T   T   T
  0.2795368455304619  0.6467533726940440  0.5363346454553035   T   T   T
  0.1621774938884571  0.6487997012596242  0.4265989715526837   T   T   T
  0.2524085211110924  0.6637230259063682  0.4743329327898994   T   T   T
  0.1030643604515380  0.8924519125361383  0.3898641328417507   T   T   T
  0.1758288493193317  0.8511691301565366  0.4523081262220078   T   T   T
  0.0801101777162213  0.9416326050779268  0.4751653743911893   T   T   T
  0.2674216208742429  0.1319644193463463  0.5483864215528407   T   T   T
  0.2622666158977203  0.4040775442626562  0.4953071225889891   T   T   T
  0.5645641628085869  0.3207068527905406  0.5000099020312050   T   T   T
  0.4335368587434023  0.9739399557625128  0.4657828206031270   T   T   T
  0.5554018697504588  0.5187736879211441  0.4282036145307314   T   T   T
  0.8516496026770901  0.3728099641857239  0.4469939966980875   T   T   T
  0.6452221581808042  0.4682787215020455  0.3681804103080522   T   T   T
  0.9150212565559251  0.3696746850883816  0.4105898744829874   T   T   T
  0.9538647297078291  0.9859480704922756  0.4029126044598301   T   T   T
  0.9283578731662221  0.7186063585880192  0.4281791819575970   T   T   T
  0.8638035844509893  0.8176156151148294  0.4394465437958113   T   T   T
  0.8715875230893492  0.6541692151476416  0.3868876380454560   T   T   T
  0.0469265130758272  0.6355585170529575  0.4222166716895359   T   T   T
  0.4279573481749494  0.8040331764830271  0.4408507046459013   T   T   T
  0.7190990994512034  0.4254088783443017  0.4275288630453134   T   T   T
  0.9706385988843172  0.5995735794485734  0.3824285270290675   T   T   T
  0.6888095234028857  0.6944077669928356  0.3670786313561244   T   T   T
  0.6350820665473510  0.7189337501107989  0.4306737295677797   T   T   T
  0.7538981978084616  0.9009354197574567  0.3910955078199698   T   T   T
  0.8996341479119662  0.9913464418517516  0.4798890402328547   T   T   T
  0.7644082446964078  0.6083840363104526  0.3525334320035979   T   T   T
  0.5089214285397250  0.4557827827547689  0.4867910797789982   T   T   T
  0.9671592489846692  0.9119582950068542  0.3561943737317133   T   T   T
  0.0317241074662315  0.7704511186629283  0.3402954377696437   T   T   T
  0.5142694417189965  0.4144646752217822  0.4173507081059523   T   T   T
  0.3009496221724670  0.8709203396867082  0.3311577369258160   T   T   T
  0.5016940379340772  0.6411642748382559  0.4258555294328129   T   T   T
  0.0211770901388376  0.5703100249533652  0.3354687207553004   T   T   T
  0.6857467736974499  0.3789011594041845  0.4662551095945459   T   T   T
  0.6649822041246257  0.1885483679472995  0.1936252593304452   T   T   T
  0.3581507771555683  0.1728861093513808  0.3566044377128040   T   T   T
  0.0207866126200802  0.1307748179125855  0.3322768695024284   T   T   T
  0.8020326884100397  0.9515767956545703  0.2708569019572518   T   T   T
  0.0090281325676860  0.3470589506030723  0.1280042952517214   T   T   T
  0.3201500787571115  0.5249203371765657  0.3450892965159398   T   T   T
  0.7712161653929217  0.3388230015802920  0.3265071797377465   T   T   T
  0.5355431843420696  0.4841519751208219  0.1001722921002103   T   T   T
  0.7985922503950798  0.8424746136559879  0.0821474686274735   T   T   T
  0.8962655920874240  0.8069242662506593  0.3085522464508733   T   T   T
  0.0812758442531127  0.7868399282399916  0.0090244895166667   F   F   F
  0.5490870663165286  0.3437187754515756  0.2090108479552878   T   T   T
  0.0854925176598547  0.3635907099894433  0.3862882777603367   T   T   T
  0.5633898864176671  0.3770842214905987  0.0002777777777778   F   F   F
  0.1923634669331468  0.0171082932983758  0.0074756485500000   F   F   F
  0.8024660324114662  0.5182854418282846  0.3298743492895141   T   T   T
  0.5532547052326960  0.6165042362034773  0.4086104472620872   T   T   T
  0.8773359768504266  0.5637245745008331  0.0448964266722222   F   F   F
  0.0797680674803079  0.9609894909145225  0.1394243239712967   T   T   T
  0.4180770326071713  0.6536058615963024  0.0425008565833333   F   F   F
  0.1635686266599040  0.0356893349212687  0.2180911524419979   T   T   T
  0.3645023204428336  0.1991228547276557  0.2832520436015554   T   T   T
  0.2744628643167623  0.5347146187911820  0.0542080962739414   F   F   F
  0.4056351935569139  0.8001839151949964  0.1732838783490362   T   T   T
  0.0373895053649650  0.7885048830674845  0.1795299240179386   T   T   T
  0.2963333406317177  0.9225428956827411  0.1960312297346766   T   T   T
  0.1659248197175268  0.4470440453999206  0.1106433018287733   T   T   T
  0.3669332151284067  0.8798528071777367  0.3388917366402181   T   T   T
  0.2032913526456011  0.2124883859327655  0.3186168561378381   T   T   T
  0.3175906297400958  0.0988606495286459  0.4238928854044142   T   T   T
  0.2518192376788226  0.9517828971038396  0.2664450640911274   T   T   T
  0.4774817890263243  0.8819485710307318  0.2350064712653102   T   T   T
  0.3505063475849700  0.0789756281669265  0.2290354518399869   T   T   T
  0.6077134930240805  0.7384912423406561  0.3562849771842624   T   T   T
  0.2820660444252489  0.1518732928003036  0.5748462064898232   T   T   T
  0.5892053909180052  0.8247930728619535  0.1775128446999271   T   T   T
  0.4487253654051017  0.1601396273688206  0.5303666534845551   T   T   T
  0.5943451736936445  0.2617905069548438  0.5046791265317041   T   T   T
  0.8286867421089996  0.0037052982297939  0.4750864924791131   T   T   T
  0.7448787744156263  0.4052830429768273  0.4525883351845103   T   T   T
  0.5404141172197169  0.4537031653008364  0.4381474625629670   T   T   T
  0.4370984573955514  0.6829578131989059  0.4575737335035099   T   T   T
  0.7654854950943204  0.8998011360439203  0.4180360475964112   T   T   T
  0.6355052389650646  0.7726123561300421  0.4490256526461980   T   T   T
  0.9094735017294174  0.7681034791664355  0.4495182756823347   T   T   T
  0.9688619932665711  0.0527110125950446  0.3952900037625550   T   T   T
  0.9148006580144227  0.3526265557709575  0.4379900188876810   T   T   T
  0.9390555350521559  0.6482037500143084  0.3968500611520521   T   T   T
  0.7541710521102658  0.6586425212122144  0.3722590443726408   T   T   T
  0.0043457796565373  0.8611935602473646  0.3678564419505694   T   T   T
  0.4280116402709233  0.8660111641590271  0.4271477045386042   T   T   T
  0.4118398784017292  0.0299967411378057  0.4796838561736547   T   T   T
  0.1714419260296483  0.8638760366244150  0.4800485825863842   T   T   T
  0.3049892176689907  0.5951981828948505  0.5519716602999483   T   T   T
  0.4408988981331882  0.3212180583630938  0.1542298121329763   T   T   T
  0.6867049030608334  0.4327871596950043  0.1356774146070922   T   T   T
  0.0650696588120863  0.4309977554314352  0.4730723649194632   T   T   T
  0.0647792006196902  0.1750287159450932  0.4299352773105184   T   T   T
  0.2430670999019909  0.2501845920947400  0.4533474740795990   T   T   T
  0.2700369436788040  0.4342477479506351  0.4230510942998364   T   T   T
  0.3007935362369021  0.4212013581337372  0.5173830684536772   T   T   T
  0.1058347507461059  0.6157044713373390  0.4372190989232493   T   T   T
  0.2475612584870623  0.6957339775700743  0.4984995998145050   T   T   T
  0.1725412897901328  0.9006119085886449  0.3971684486716905   T   T   T
  0.0350246796178893  0.9954785179562212  0.4703957840305691   T   T   T
  0.5132728117366120  0.1743788152199783  0.2361163472273703   T   T   T
  0.4747262983307981  0.3691144598492546  0.3727071659852237   T   T   T
  0.2749806466747692  0.3388030946896648  0.5840927646915004   T   T   T
  0.4873886083691178  0.4676357766362933  0.5140701538032364   T   T   T
  0.3284152833260688  0.3470997612468157  0.3293411830684546   T   T   T
  0.8089078716911554  0.0300691638566142  0.0791484244348810   T   T   T
  0.5959733281849782  0.5175707079099572  0.2602152011592495   T   T   T
  0.8008082655726899  0.1248108182804272  0.1427896808157471   T   T   T
  0.0348820299530645  0.5349794687391438  0.3600781081851197   T   T   T
  0.0533829950541183  0.7149549146895294  0.3226404466536563   T   T   T
  0.6423488638822803  0.6640730246295148  0.2170932958192609   T   T   T
  0.9171177160093817  0.8767564449819586  0.1384665709958282   T   T   T
  0.8210662654830164  0.5524920311142367  0.1501863602557904   T   T   T
  0.9904379807053160  0.2920496438851344  0.2570123739298915   T   T   T
  0.5820097615028625  0.5598996130821737  0.3384798375805833   T   T   T
  0.4104499938469511  0.4748882414713499  0.0126784842333333   F   F   F
  0.3225282916864764  0.6082814294195178  0.4146395453612033   T   T   T
  0.3467353051731299  0.2405499497684251  0.0984231451192340   T   T   T
  0.9758772989599275  0.0847317709041643  0.1062924091096692   T   T   T
  0.0633263609829783  0.4664463089677214  0.2558509000429680   T   T   T
  0.4750192644156433  0.1478707494916211  0.1350472468144241   T   T   T
  0.4097801660478374  0.2849595238434148  0.0265161640638889   F   F   F
  0.7028132009729301  0.5457224745794854  0.0732257827154918   T   T   T
  0.9602353244569404  0.2574336613382794  0.1891674564914734   T   T   T
  0.4326719371513871  0.6690157175376015  0.3594106377893037   T   T   T
  0.1942586370825314  0.4630046629004864  0.2075425127460181   T   T   T
  0.1738634758525743  0.0261107995206759  0.3254817017984969   T   T   T
  0.2194384472895480  0.6324734053889661  0.1139404821672350   T   T   T
  0.6324461259232922  0.0560880621434458  0.1427522353173918   T   T   T
  0.2768422824069602  0.4511239303672860  0.2731023660950769   T   T   T
  0.6501755528831219  0.3762973212905268  0.0642350120068482   T   T   T
  0.3827705306205989  0.7290799651581207  0.2773984895058876   T   T   T
  0.8351141787504395  0.1536236675676687  0.3574482789164791   T   T   T
  0.3346007237630645  0.7539626764943368  0.0893037935723716   T   T   T
  0.3229707963605533  0.5853571946027131  0.2302092381997453   T   T   T
  0.4867943298040182  0.4963412961261815  0.1682725329854274   T   T   T
  0.2111477700429271  0.6758271617366858  0.2834226128522928   T   T   T
  0.2676939834046432  0.7573646025086281  0.2209695822907378   T   T   T
  0.4696068621131168  0.6378675876881038  0.1127779368617365   T   T   T
  0.0699803355637124  0.9600080642541661  0.2712041424722119   T   T   T
  0.7462521526143318  0.0178535734998219  0.2009976593986391   T   T   T
  0.9887979650127371  0.5081357088474148  0.0981328942695167   T   T   T
  0.0764896587204148  0.6125053925706769  0.2068851971799286   T   T   T
  0.2350516075678608  0.3097596232370038  0.0416708667638889   F   F   F
  0.6669744951184944  0.2636504039003433  0.2656883552524489   T   T   T
  0.1574193244667638  0.7816591994957107  0.0771371590705417   T   T   T
  0.6484434496693681  0.9402624877287261  0.0724499278074127   T   T   T
  0.4883345104409709  0.0678627671494973  0.3965358871050367   T   T   T
  0.4946854913547990  0.9468922594472826  0.0295747199472222   F   F   F
  0.8867871696725756  0.7020146532343212  0.1200691427285454   T   T   T
  0.0156431638511557  0.3819060413252128  0.3197210771225147   T   T   T
  0.6561411748028284  0.2133685402889620  0.3369253932651126   T   T   T
  0.4678462050561682  0.0295363714345552  0.2825509476148392   T   T   T
  0.3725297214248609  0.4061633325292549  0.2143407757973403   T   T   T
  0.6250452106150124  0.9717502921831210  0.2513757223822894   T   T   T
  0.9937234804288946  0.7451693550312234  0.2477506414325619   T   T   T
  0.5563999079897272  0.8633309679094532  0.3039653935158806   T   T   T
  0.8454855186930271  0.3801481277123119  0.1652714350580706   T   T   T
  0.3016391556056481  0.1997113298380780  0.1648534905889312   T   T   T
  0.7198705168425562  0.2869277637942866  0.0063726719361111   F   F   F
  0.7085516953250925  0.4873322008113901  0.2025783719791856   T   T   T
  0.1541083530715596  0.0548925215913163  0.0796170832983273   T   T   T
  0.5830717372764479  0.9140639814839461  0.3722042561629501   T   T   T
  0.1353268077986505  0.2353846237928411  0.2057058869701874   T   T   T
  0.1247528485107030  0.1420967846368105  0.1443494810260087   T   T   T
  0.0602459674908985  0.3675942999970898  0.0558428390383307   T   T   T
  0.1216626789980957  0.1834023792458578  0.0261942219944444   F   F   F
  0.4874664944295535  0.9757432479799536  0.1738080210924286   T   T   T
  0.8963335092802668  0.4521773340556378  0.2735832601950406   T   T   T
  0.9740361805160911  0.8110382276813951  0.0740076641718144   T   T   T
  0.1868405396263913  0.8434587475367283  0.3185989102172692   T   T   T
  0.2931352336582123  0.1479646428284363  0.0422510982916667   F   F   F
  0.7018486504906094  0.4397525508829592  0.3805506600357547   T   T   T
  0.5936829309979795  0.3853284286140214  0.3137638737608671   T   T   T
  0.2337767660876901  0.8037735394842862  0.1466335945059954   T   T   T
  0.9018372322497854  0.9806576965625798  0.3328025189312814   T   T   T
  0.0120827266933350  0.4422313477732494  0.1892388409459999   T   T   T
  0.7313510441827253  0.4677794377821004  0.0098617390555556   F   F   F
  0.7330216270520827  0.8796619551136841  0.3361164477573509   T   T   T
  0.4818468179075599  0.9820817347583809  0.1020419051337349   T   T   T
  0.5117203381096490  0.7954802454525074  0.0712755562199916   T   T   T
  0.9002493435607669  0.6697051566683597  0.1939630695406805   T   T   T
  0.6740473091155020  0.0694562250766892  0.3820299394871798   T   T   T
  0.3475600854507105  0.4993772976082818  0.1204715717646581   T   T   T
  0.9931988124302805  0.9627667051418505  0.2023950032610717   T   T   T
  0.0118335616764348  0.1200760828466445  0.2341992456056480   T   T   T
  0.7417010845243965  0.7196459618969049  0.1627145211779257   T   T   T
  0.9171682209295288  0.6237446325360805  0.2987633804992337   T   T   T
  0.7326045034590687  0.8350204827063399  0.2193338421210948   T   T   T
  0.2355242158576955  0.6834592379838539  0.3552292598827630   T   T   T
  0.0436078436853326  0.6496999030047510  0.0567198455021290   T   T   T
  0.4439022000640495  0.4770443289306002  0.2974040392926213   T   T   T
  0.7737083258371638  0.9222293814157945  0.0165011126583333   F   F   F
  0.7622355108775383  0.5885117959970078  0.2634227659259986   T   T   T
  0.8958512917233239  0.4126674786897817  0.3738706985220863   T   T   T
  0.4544042539084605  0.3773991949282865  0.0077939424555556   F   F   F
  0.5949749867692302  0.2401158734816403  0.2239125904517711   T   T   T
  0.0022355654629760  0.7015705435267365  0.2076172818892502   T   T   T
  0.1709160009258686  0.7249164183739081  0.3207403755601674   T   T   T
  0.5775979591420701  0.0186472103705117  0.3838532959161994   T   T   T
  0.0834378842904965  0.0605784055509000  0.1178565454027146   T   T   T
  0.4248523483510073  0.1246753273905385  0.2573686795581816   T   T   T
  0.6665363923868002  0.3759135019696425  0.0185512690888889   F   F   F
  0.3944816509166191  0.2251199689494748  0.1401358598609962   T   T   T
  0.8855152415939114  0.8061289879819949  0.1043314646949601   T   T   T
  0.0892071299307611  0.4994604194260884  0.2134311910499481   T   T   T
  0.9556696418188633  0.3547777302312324  0.1662237488731826   T   T   T
  0.1294666343539015  0.2931173209468038  0.0366106529472222   F   F   F
  0.6730707842910592  0.3010645025543533  0.3089901179727641   T   T   T
  0.1290068844648396  0.1309529486342055  0.3255217862659672   T   T   T
  0.7672080637314292  0.4594781718015298  0.1645341719199023   T   T   T
  0.8371961578359000  0.9076604085145465  0.3099269980306696   T   T   T
  0.8640876796172456  0.0801639741712103  0.1108201787586615   T   T   T
  0.7249678647796773  0.1455397030336360  0.3593198126985462   T   T   T
  0.5575947216536457  0.4873544520748582  0.3001370433336585   T   T   T
  0.6786981093015758  0.5659855387499380  0.2337986579097455   T   T   T
  0.7950060192804510  0.4266290210064489  0.3550376887975236   T   T   T
  0.3402124886622616  0.4497187615241768  0.3103140782012843   T   T   T
  0.9580111637115509  0.7255060700153947  0.2901428875322673   T   T   T
  0.8355949338547904  0.6595935320867222  0.1576468135268018   T   T   T
  0.8435075303409645  0.5441664401342232  0.2889835478034232   T   T   T
  0.2881916326603710  0.4738483889194162  0.2309602672909263   T   T   T
  0.4588472851586577  0.5336176326740996  0.1259020224415762   T   T   T
  0.5292651996041179  0.9341696182198045  0.2681384548025699   T   T   T
  0.6739380701269944  0.7605306991451495  0.1966054754604343   T   T   T
  0.1878479847304269  0.0951951537785325  0.0406157481722222   F   F   F
  0.9905119747932015  0.3924275270614853  0.2756747866968798   T   T   T
  0.9625994238010045  0.5833972118691353  0.0688292753814272   T   T   T
  0.1960683250337289  0.1827364379447470  0.1746731959907733   T   T   T
  0.6223851772241329  0.8497654339573929  0.3398744812515107   T   T   T
  0.0062911628742022  0.8954435996828918  0.1659796007198233   T   T   T
  0.0562272360068824  0.0182691267669714  0.2330529663018540   T   T   T
  0.7589007543682369  0.9325966036052036  0.0607724074427464   T   T   T
  0.4657280772777561  0.3953424765943841  0.1894430892138631   T   T   T
  0.5429220949645520  0.6474937342211313  0.3628108165913456   T   T   T
  0.3307589553469694  0.6254706176243154  0.3665904815138616   T   T   T
  0.9285764276230754  0.0842101859497556  0.3522056998760258   T   T   T
  0.3151227478690389  0.2349218271523963  0.3222206711620022   T   T   T
  0.2930115896344737  0.8151269435348812  0.1837374003594339   T   T   T
  0.4370447838844334  0.7130347682582870  0.0802175989907748   T   T   T
  0.6422522885512062  0.4574218292650121  0.0955840783882836   T   T   T
  0.2305693149747529  0.7476334443679222  0.1075829427076675   T   T   T
  0.5189298572977493  0.0417894620111478  0.1380634255704627   T   T   T
  0.0112303086708678  0.4212342552622780  0.3599357265241566   T   T   T
  0.0620381426768702  0.7622913685720401  0.0540591285111111   F   F   F
  0.0238104508758796  0.2245482393215078  0.2218744462370975   T   T   T
  0.5354527700152720  0.9181253474971868  0.0695178055436871   T   T   T
  0.2469355437922079  0.5272041654831825  0.1027783749829974   T   T   T
  0.3002580226767830  0.6864664579092964  0.2522536977875876   T   T   T
  0.3318633976715442  0.2480100700603357  0.0530482193250000   F   F   F
  0.7648301748395757  0.5496870451614064  0.0370617214277778   F   F   F
  0.2670341330335272  0.9998576377748302  0.2266837026770456   T   T   T
  0.7312662680201603  0.9447949323788519  0.2345830816309826   T   T   T
  0.7086223560449822  0.0948036735749222  0.1714450236978672   T   T   T
  0.3878490789799584  0.1131701114249639  0.3921498406349229   T   T   T
  0.4895700397283448  0.8672633082520960  0.1882471791403942   T   T   T
  0.3653775511934237  0.5611946524025989  0.0321987569361111   F   F   F
  0.1663313714238362  0.9399520101890348  0.2954933301207099   T   T   T
  0.0537322508469724  0.4177729776247840  0.0996562199007345   T   T   T
Cartesian
 -0.0009901013230230 -0.0012206976962644 -0.0040279133219478
  0.0057108053679099 -0.0045916157766273  0.0009320312083281
  0.0000000000000000  0.0000000000000000  0.0000000000000000
 -0.0025843773134865  0.0026972738031461  0.0014430648860637
  0.0022461153199482 -0.0028750222430728  0.0024548974340407
  0.0006572804201414 -0.0020469266066454  0.0026092038962589
  0.0016864847511104  0.0045145437917413  0.0009285927142014
  0.0003570114522244  0.0003614163278836 -0.0037111732869246
 -0.0024270749771566  0.0015339315433708  0.0003803918572906
 -0.0032858209704164 -0.0027299543678994 -0.0055161067140857
  0.0000000000000000  0.0000000000000000  0.0000000000000000
  0.0080988918332473 -0.0001415203012753  0.0017276876651183
  0.0030252718172566 -0.0022472179101410 -0.0054813816807826
 -0.0024352237441834  0.0022234340208749  0.0055170944972556
  0.0062967535376117  0.0043467351742276  0.0004097926907650
  0.0001742433688446  0.0037761511709491 -0.0019973218028073
  0.0000000000000000  0.0000000000000000  0.0000000000000000
 -0.0094715853641680 -0.0035474729132996 -0.0031299960953823
 -0.0006568441122590  0.0060541830729458  0.0005912295685588
  0.0000000000000000  0.0000000000000000  0.0000000000000000
 -0.0025984816902786  0.0005106722527597  0.0039178544344574
 -0.0000242450572880 -0.0010458804765702 -0.0037184146538466
  0.0011733626411048  0.0007517538443955 -0.0033299033901039
 -0.0042008939279046 -0.0042025069160048  0.0000019377358565
 -0.0039701406346574 -0.0009793645431352 -0.0002413513200308
  0.0042047395856432 -0.0003223179973327  0.0037941642289754
  0.0000000000000000  0.0000000000000000  0.0000000000000000
  0.0000000000000000  0.0000000000000000  0.0000000000000000
  0.0011669212093542  0.0046574809061875  0.0016525927599681
  0.0037847060467260 -0.0017509787155721  0.0008785018583994
  0.0033338606361732  0.0007064472447480 -0.0015868577269941
  0.0018496409860873 -0.0001549667205921  0.0022784906125102
 -0.0000891965112416 -0.0003807520496409  0.0027085487465179
 -0.0001163309186972  0.0029355751457040  0.0055584914769684
  0.0025352782310266  0.0022475894145311  0.0028769406969980
  0.0023206635532947 -0.0043159359750316  0.0028176402085418
  0.0003116376005994  0.0035910760434708  0.0005896261371240
 -0.0031516892349637  0.0048221120840513 -0.0023157394906490
 -0.0036218640791432  0.0027274695093838  0.0038600841284905
 -0.0034311550796843 -0.0009397674794746  0.0057469826719666
  0.0038890576951193 -0.0052866962209443  0.0014669716955315
 -0.0000469836779770  0.0002101519529347  0.0013071353964038
  0.0025346771206159  0.0020846678453706  0.0100869805564029
 -0.0001059418113506  0.0015802884805650  0.0022086457416574
 -0.0067299295960085 -0.0014843597218137  0.0055619469076964
 -0.0067886127321890  0.0044643544615221  0.0005453434764887
 -0.0031335783839435 -0.0002571419769332  0.0006747499383597
 -0.0037606811817047  0.0001431700282025  0.0000791917386398
 -0.0002482188477537 -0.0027629683621065 -0.0009378608483602
 -0.0059304024892664  0.0019369892487260  0.0027126227480827
  0.0047295698892310 -0.0055999601513922 -0.0073065860725962
  0.0037057685113983 -0.0050004342615019  0.0006102691579263
  0.0042367225785597 -0.0014780591848411  0.0013880799221064
 -0.0000576351318294  0.0035020314231177  0.0047712306089828
  0.0028704314784427  0.0008171688615360  0.0010388003716901
  0.0036841957006956 -0.0022751516109799  0.0003858988750853
  0.0021586182991034 -0.0035327112048218 -0.0019568971010045
  0.0039224241221027  0.0024639675052904 -0.0002861103054631
 -0.0025042652094234 -0.0012048424962893  0.0044930493028464
 -0.0049079672440885 -0.0050884100899625  0.0033408574829096
  0.0000000000000000  0.0000000000000000  0.0000000000000000
 -0.0033170161597787  0.0013276132328869  0.0009855631811410
 -0.0005638104414596  0.0041726107284317 -0.0013893622847747
 -0.0054384952968613 -0.0002053154867593 -0.0004213742691248
 -0.0041607730014633 -0.0053934256469350 -0.0010917868485037
  0.0000000000000000  0.0000000000000000  0.0000000000000000
  0.0113476762521326  0.0057898913807407 -0.0055851888824697
  0.0013776441054758 -0.0009142058771950  0.0008801841036435
  0.0073474410956551 -0.0001212054141862  0.0052276859299845
 -0.0079992603348505 -0.0039441262027428 -0.0025576795286086
  0.0003264924177844  0.0019547761359202 -0.0023371300383196
 -0.0099038503642899  0.0043836638483352 -0.0101089712168255
  0.0029454935830716  0.0017521111053782  0.0025026332009230
  0.0011827244758523 -0.0017145901241652 -0.0008126666479290
  0.0000000000000000  0.0000000000000000  0.0000000000000000
  0.0003871416990878  0.0025581544907518  0.0023410840053397
 -0.0036071749071949 -0.0014400239925933 -0.0043053613367757
 -0.0014102676419233  0.0030093186427839  0.0012455731441073
 -0.0033558948935188 -0.0002434385069572 -0.0040285434014938
 -0.0036109940960458  0.0019872351689935 -0.0025593730373869
 -0.0100602390291918  0.0024197880149352 -0.0016646455379588
 -0.0038196662485792  0.0006828428811535 -0.0022595812861353
  0.0000000000000000  0.0000000000000000  0.0000000000000000
  0.0004499509099702 -0.0001247355384581 -0.0000897320296471
 -0.0021880469897983  0.0006191902037399  0.0007830043672908
  0.0001927885717483  0.0011391587621912  0.0015983833686001
  0.0014657610049764 -0.0025938717824845 -0.0016339917898497
 -0.0020197954480925 -0.0010502186189987 -0.0029048487768246
  0.0000000000000000  0.0000000000000000  0.0000000000000000
 -0.0031006331799608  0.0030490194040256  0.0044072084438204
 -0.0027409083925668 -0.0037580576839235 -0.0025918301557568
  0.0016832681013129 -0.0047104980135943 -0.0067637126917365
 -0.0012469541797225  0.0022536301259976 -0.0054158733762771
 -0.0029020218376303 -0.0052447850876955  0.0029887147386554
 -0.0058459952717687  0.0010090121183967  0.0017054880064774
  0.0035552814807464  0.0050271892025413 -0.0034526140551990
  0.0000000000000000  0.0000000000000000  0.0000000000000000
  0.0000000000000000  0.0000000000000000  0.0000000000000000
  0.0005899447936644  0.0012962299655596 -0.0042493068459889
  0.0006539259353665  0.0005644098018141 -0.0004203361669549
  0.0030712803076775 -0.0005444902820666 -0.0018889796635142
  0.0004279137937385 -0.0002369650922686  0.0026766464774656
  0.0033911898136575 -0.0057639560201822 -0.0036217903257204
  0.0000000000000000  0.0000000000000000  0.0000000000000000
  0.0006639411145768  0.0027539996514385 -0.0036047281813647
 -0.0031298512819251  0.0026564645551462  0.0028490034281432
 -0.0105842821004278 -0.0007661294437314  0.0011716746586680
  0.0000000000000000  0.0000000000000000  0.0000000000000000
 -0.0015927805649957  0.0048357284270519 -0.0000696400814098
  0.0050833239050228  0.0014604408647715  0.0042136433116451
 -0.0029799094425539  0.0017473839819411 -0.0043976135310586
 -0.0035453908430512 -0.0043940364300135 -0.0027775074949529
 -0.0011269292114760  0.0027093878348131 -0.0031870085912219
 -0.0019003755829123 -0.0010779520254572  0.0003782623426205
  0.0000000000000000  0.0000000000000000  0.0000000000000000
 -0.0037969842886409  0.0017754985399807 -0.0010419580400645
  0.0031033205414689  0.0021512876787945  0.0048586924717583
 -0.0010004331989187 -0.0060131024842868  0.0011169504754402
 -0.0004884500606634 -0.0075912015957719  0.0061171320016455
 -0.0025174477331180 -0.0020861547733904  0.0006680566680774
 -0.0014129564026934 -0.0020523419127228 -0.0030249977571507
  0.0004076154162471 -0.0009850056939018 -0.0009985742317243
 -0.0009522747054222 -0.0027962582339924 -0.0018546790568481
  0.0032351302965367 -0.0015820305184154 -0.0010536799143437
  0.0000184486187162  0.0026319675173630 -0.0008572135365252
  0.0013920596861019  0.0005650174193426 -0.0052380714387557
 -0.0015974862751676  0.0030237270678306 -0.0020860814531201
 -0.0077074667700969  0.0006596040829787 -0.0009017722818568
  0.0004707105063944  0.0033230783583490  0.0022930591686986
  0.0037768513601371 -0.0041049920907326 -0.0039377959305475
 -0.0027807761233904  0.0028629937988871 -0.0013250276726161
  0.0029754041453680 -0.0037032862360232  0.0001940350408346
  0.0011638775544417  0.0001390326741335  0.0081797747965582
  0.0002723303406808  0.0014104812200920 -0.0028833425294141
  0.0098451443090252  0.0000596017292499  0.0059977335107299
  0.0006234785840565  0.0046685601070128 -0.0076012617054907
 -0.0031122781038659  0.0040431020285581  0.0010799141031144
 -0.0042501660320018  0.0012861443332096 -0.0003885207389919
 -0.0036482200557351  0.0017510141010772 -0.0033533318022838
  0.0038015221328458 -0.0007948608878715 -0.0005923236520629
 -0.0005783857306837 -0.0069967845237869 -0.0007607797932394
  0.0029088123798021  0.0045524745123356 -0.0017903357759266
  0.0057562826577595 -0.0006436888405111  0.0016901990433139
  0.0020536270977841 -0.0007461366086183 -0.0011140694050274
  0.0009080236657857 -0.0027435059156709 -0.0019874455536984
  0.0021789893381941  0.0014710531904633 -0.0037356726285085
  0.0023671269979978 -0.0036357627196896 -0.0006411022553401
 -0.0028033293329240  0.0066460308718950  0.0009180204531536
  0.0022440080486229  0.0005866626526181  0.0029957627951344
  0.0000000000000000  0.0000000000000000  0.0000000000000000
 -0.0020541597515487 -0.0019444636156443 -0.0060905788757683
  0.0005886739320130  0.0053898521466617 -0.0048764260582002
 -0.0007182709320302  0.0017839432402053  0.0020809243813471
  0.0028577064771541  0.0055691472977663 -0.0017748757600231
 -0.0091297021625696 -0.0040982131061950  0.0052607799052267
  0.0000000000000000  0.0000000000000000  0.0000000000000000
  0.0000000000000000  0.0000000000000000  0.0000000000000000
  0.0033793842281813  0.0023977431090364  0.0039143516645727
  0.0000000000000000  0.0000000000000000  0.0000000000000000
 -0.0046271489561079 -0.0041011441215689  0.0015497330482836
  0.0034828352815786 -0.0040998461031799  0.0008923801799476
 -0.0072415387794301 -0.0044046271933863 -0.0017916211752488
 -0.0019499647431031  0.0029243413479625 -0.0018963110327654
  0.0032496950611884  0.0006271169861166  0.0010720038972237
 -0.0016484919014197  0.0031154860846319  0.0000252133315886
 -0.0074498324249769 -0.0050899782581244  0.0010337162599091
  0.0016656238196443  0.0001392388531853  0.0016507516387003
 -0.0031394399166531  0.0111196619984265 -0.0018053004398918
  0.0003036420045229 -0.0034512971995369  0.0041659339616701
  0.0039458996701057 -0.0033782516492088 -0.0025300054669409
  0.0001791164926655  0.0015395674799758 -0.0023580953775824
 -0.0019101608580122 -0.0019535226337813  0.0014152407234872
 -0.0005068514411213  0.0012186853552349 -0.0027825458597580
  0.0015468261599526  0.0027792760473910  0.0015159139428166
 -0.0046099772432925 -0.0002797016508912 -0.0029942007813067
  0.0022482355942906 -0.0000493440825099  0.0028709487679986
  0.0015692281576494 -0.0047433096489154  0.0001855723768021
  0.0073234744191850 -0.0056225747195227  0.0032621818069502
 -0.0048623070151828  0.0011986350976789 -0.0018957741332337
  0.0049681170823791 -0.0027309004140538  0.0020048660965527
  0.0000000000000000  0.0000000000000000  0.0000000000000000
  0.0013701318791261  0.0037788879302558 -0.0061820127057567
 -0.0085050037774661 -0.0079781844666118 -0.0021727646926580
 -0.0069159948673980 -0.0090666113507769  0.0061638119613109
  0.0018761799525717  0.0002093677396277 -0.0017265565879795
 -0.0038147158376217 -0.0037686324338624 -0.0049780287048800
  0.0000000000000000  0.0000000000000000  0.0000000000000000
  0.0033115981374557 -0.0016538342838720  0.0015514539006059
  0.0015146819087535 -0.0021346748371494  0.0041486776203580
 -0.0003082528234773 -0.0027327669730998 -0.0005043961148544
  0.0019354803142114 -0.0034324845506524  0.0043767395279945
  0.0016119386423633  0.0003334418847032  0.0022014290684942
 -0.0014786114458851 -0.0018243206261884 -0.0089548695548721
 -0.0178254576694408  0.0243500512525834 -0.0006211097628085
 -0.0030435349920109  0.0003533710121192 -0.0120814274833019
 -0.0083540041912007  0.0011715040955461 -0.0253059431666761
  0.0238017190613210  0.0340705535281562  0.0045313608291076
  0.0012897080055584 -0.0025509671836831 -0.0007286976518132
 -0.0160317759307638 -0.0122098670138711  0.0048066621148015
 -0.0035887093097076 -0.0015227567236045 -0.0070494831724110
 -0.0041846570475883  0.0092775962376455 -0.0029245639124770
  0.0124057007253274 -0.0013671385182929 -0.0051453303968943
  0.0057795200327825  0.0031570376603351 -0.0083592205712833
 -0.0098958405166427  0.0020691748617522  0.0131466353534160
  0.0250844331468959  0.0038593802037073  0.0186372167297725
  0.0045106882608977 -0.0003757403339595  0.0010513151550754
  0.0292690459066030  0.0074764081022645 -0.0228887656669372
  0.0066401311937322  0.0005314173305321  0.0025063289821869
  0.0084228802458990  0.0093635910596459 -0.0048858331108067
 -0.0082039071371707  0.0255296311954234  0.0368224918156137
  0.0065125527867174 -0.0191948930196459 -0.0132744472163163
  0.0069861117110915 -0.0023717723347905 -0.0062054468075243
  0.0239929680735979  0.0229238245019253  0.0013711011232358
  0.0126311364610697  0.0217640165363613 -0.0107586755234079
 -0.0253111262276498  0.0017151057704833 -0.0057162792166958
 -0.0089149895353289 -0.0065167898516379  0.0023218906553136
 -0.0154093463974497  0.0215042824902359  0.0134493162931183
 -0.0149873173163251 -0.0085822876996109  0.0119472350987196
  0.0042592017936931 -0.0108728277670335  0.0302471381780018
 -0.0007332097545988  0.0076470571860140 -0.0010343569966760
 -0.0005366374536585  0.0001201685719116 -0.0105362663411540
 -0.0195633597700015  0.0265879379867465 -0.0038208670728841
  0.0073452961776610 -0.0364115442235568  0.0294971206582509
  0.0065092047995217 -0.0083647339460537  0.0148567007020651
 -0.0090004546374207  0.0315974321287648 -0.0082870120790486
 -0.0060017485678974 -0.0013193424986736  0.0016498810362503
 -0.0021746503934946  0.0007505785065212 -0.0012135080688998
  0.0041342505184222  0.0308644137489969  0.0091726085088074
 -0.0111851720490972 -0.0096097628410583  0.0059596217539251
 -0.0067144952671563 -0.0023009719008981 -0.0066113796668801
 -0.0284917861630973  0.0091482748461204 -0.0079924604284722
 -0.0145292552828050 -0.0141426050458572 -0.0154372822755833
 -0.0266693836451737  0.0153365561707665 -0.0069731703610090
  0.0038950015920264 -0.0154073238228818  0.0155468166744613
  0.0261400152928924 -0.0105326016395008 -0.0017579657465696
  0.0024027266830134 -0.0007875511341132 -0.0037134351554856
 -0.0009120636255530 -0.0023894587734760  0.0124682411280715
  0.0033783639562246  0.0005748966986567 -0.0036419080672953
 -0.0104739804620082  0.0198938277136501  0.0281489789560595
  0.0060996290157722 -0.0066261075255179 -0.0019229529925629
 -0.0055180330643196  0.0317485745003758  0.0301270578227287
  0.0047911281343518  0.0034559194655111  0.0013360502528728
 -0.0260179967663728 -0.0136337448711692 -0.0094421826109793
 -0.0242892001977665  0.0218561788513815 -0.0015440605241896
  0.0046218657902863 -0.0112912349196477  0.0072895027451450
  0.0038703612683534  0.0082432429853384 -0.0237639564488821
 -0.0006968388798614 -0.0040833296457153  0.0057256605529015
 -0.0001703994907428 -0.0117901143297685 -0.0072927555267705
 -0.0058307119735971 -0.0270184758941740 -0.0141576068816984
 -0.0033847433790949 -0.0068343208707525  0.0042603203103464
 -0.0204928226363940 -0.0183082557844633 -0.0136297358524946
 -0.0069165205269960 -0.0113487486829008  0.0332822436224725
 -0.0048108592827819 -0.0027670425656470 -0.0087357988371511
  0.0057270565340559  0.0190227652059121 -0.0186739819536532
  0.0004617534222741  0.0150513125159126 -0.0156146883158806
  0.0229786090368471 -0.0118967118788026  0.0112810507723649
 -0.0037974851906559 -0.0099233840219454 -0.0060669823164536
 -0.0051965648370324  0.0041062820750528 -0.0028554829521992
  0.0063444942064042  0.0100132976403440  0.0036027935803769
  0.0048890473276437  0.0030903242452151  0.0003180183331293
 -0.0120042521446215  0.0026421705741221 -0.0138227892582877
  0.0023857931134532 -0.0041120136685211 -0.0219894243388667
 -0.0051112498756689 -0.0041398081209992 -0.0054015633111353
 -0.0521724105222595 -0.0079957444618370  0.0029075832912788
  0.0095365886203375 -0.0066866780755337 -0.0018412676876326
 -0.0240947345503519 -0.0314558203672136  0.0023315345330159
  0.0041855576392472 -0.0085269816645206 -0.0004115947445694
  0.0049539942893493  0.0107925793799901 -0.0035663885807538
 -0.0076412012108969  0.0016004064879914  0.0025216932893270
  0.0100132899893100  0.0148164538247257  0.0037572647263221
 -0.0257487553604761  0.0004346316118934  0.0053905792749672
  0.0057939145767162  0.0453309913527940 -0.0071529301255305
 -0.0067389776996820 -0.0018411373467813  0.0008579624641760
  0.0073337877144386 -0.0117226758529950  0.0310977404201506
 -0.0204610879567296 -0.0008357010893695  0.0010819734592135
  0.0069007081203876  0.0001923473855373  0.0002541392095239
  0.0005398943273902  0.0026856448810557 -0.0036293307377181
 -0.0195662377009958  0.0365489166055688  0.0061171553824996
 -0.0079569541614629  0.0185152477800587 -0.0028363575208603
 -0.0246607297271843  0.0033000133360675 -0.0418040292319780
  0.0113818604012487 -0.0058229247432756  0.0038167535566536
  0.0175234578926198  0.0064918809067060 -0.0021472248388429
 -0.0071784820279869 -0.0106678254319540 -0.0019234291463118
 -0.0027892577175368 -0.0311721366055898 -0.0236792640675125
 -0.0003436871508643 -0.0567556883217320 -0.0270647131599266
  0.0307520647492078 -0.0043568279831499  0.0053452694044520
  0.0000774786176094  0.0051999207282929 -0.0018404292800903
 -0.0185450457729522  0.0134456956592665 -0.0388366359129438
